data;
param n:=100;
param w:=1 -510 2 424 3 370 4 -335 5 393 6 -234 7 123 8 -90 9 40 10 -455 11 367 12 -346 13 331 14 -196 15 -281 16 -516 17 237 18 368 19 266 20 377 21 318 22 -235 23 -512 24 -217 25 416 26 30 27 6 28 177 29 110 30 401 31 347 32 254 33 -82 34 -302 35 182 36 135 37 -121 38 -457 39 -401 40 186 41 -347 42 -174 43 -374 44 -295 45 406 46 471 47 -262 48 -301 49 380 50 60 51 -25 52 360 53 2 54 406 55 308 56 -430 57 174 58 342 59 -237 60 -142 61 -494 62 237 63 417 64 -42 65 -135 66 -134 67 -397 68 311 69 94 70 413 71 -35 72 337 73 259 74 371 75 -187 76 -309 77 37 78 322 79 294 80 217 81 -100 82 184 83 132 84 -213 85 -455 86 182 87 -80 88 -125 89 -377 90 -406 91 -377 92 -507 93 -257 94 409 95 86 96 -228 97 279 98 -22 99 -486 100 -105;
